DIMACS2
80 128 196 149 23 173 206 153 144 281 110 213 107 280 115 97 41 5 249 188 86 314 20 185 71 111 18 241 258 239 35 75 7 124 17 193 292 214 198 219 218 174 154 283 13 99 90 66 195 230 38 231 96 242 265 137 108 262 37 172 61 158 95 157 217 145 208 236 254 244 101 191 67 22 0 163 181 122 70 277 316
p edge 320 686
e 0 312 44.0
e 0 123 16.0
e 0 145 2.0
e 0 137 49.0
e 1 151 3.0
e 1 154 3.0
e 2 6 2.0
e 2 83 2.0
e 3 14 1.0
e 3 313 1.0
e 4 112 1.0
e 4 157 15.0
e 5 64 8.0
e 5 13 1.0
e 5 75 13.0
e 5 196 16.0
e 5 7 36.0
e 6 152 2.0
e 6 62 1.0
e 7 300 45.0
e 7 157 35.0
e 8 164 1.0
e 8 101 44.0
e 9 108 15.0
e 9 206 45.0
e 10 239 44.0
e 10 135 2.0
e 11 27 1.0
e 11 163 39.0
e 12 180 1.0
e 12 234 1.0
e 13 231 11.0
e 13 128 29.0
e 14 150 1.0
e 14 106 3.0
e 15 22 5.0
e 15 253 1.0
e 16 23 26.0
e 16 173 2.0
e 17 121 2.0
e 17 139 41.0
e 17 172 7.0
e 17 86 43.0
e 18 283 12.0
e 18 205 24.0
e 18 172 37.0
e 19 307 1.0
e 19 257 1.0
e 20 302 33.0
e 20 83 27.0
e 20 280 20.0
e 20 66 38.0
e 20 236 17.0
e 21 115 21.0
e 21 245 2.0
e 22 87 45.0
e 22 99 46.0
e 22 181 36.0
e 23 239 17.0
e 23 154 48.0
e 24 33 2.0
e 24 216 2.0
e 25 109 1.0
e 25 75 33.0
e 26 279 2.0
e 26 245 1.0
e 27 33 1.0
e 27 72 1.0
e 28 14 1.0
e 28 143 1.0
e 29 142 2.0
e 29 264 2.0
e 30 316 36.0
e 30 4 2.0
e 31 77 1.0
e 31 224 1.0
e 32 58 1.0
e 32 59 1.0
e 33 1 1.0
e 33 72 2.0
e 34 258 41.0
e 34 250 3.0
e 35 154 27.0
e 35 292 40.0
e 35 236 20.0
e 35 66 5.0
e 35 90 43.0
e 36 112 2.0
e 36 317 3.0
e 37 97 2.0
e 37 143 19.0
e 38 50 43.0
e 38 28 8.0
e 39 119 1.0
e 39 44 2.0
e 40 112 3.0
e 40 123 1.0
e 41 159 18.0
e 41 149 31.0
e 42 228 2.0
e 42 231 26.0
e 43 313 1.0
e 43 135 1.0
e 44 303 1.0
e 44 149 22.0
e 45 122 48.0
e 45 101 46.0
e 46 76 1.0
e 46 209 2.0
e 47 185 44.0
e 47 305 1.0
e 48 275 1.0
e 48 237 1.0
e 49 204 1.0
e 49 90 1.0
e 50 148 2.0
e 50 192 1.0
e 51 281 36.0
e 51 138 2.0
e 52 108 32.0
e 52 158 16.0
e 53 23 29.0
e 53 303 1.0
e 54 129 2.0
e 54 38 29.0
e 55 135 2.0
e 55 59 1.0
e 56 179 1.0
e 56 53 1.0
e 57 311 1.0
e 57 262 7.0
e 58 124 41.0
e 58 55 2.0
e 59 66 11.0
e 59 141 1.0
e 60 301 1.0
e 60 30 1.0
e 61 81 4.0
e 61 279 47.0
e 62 225 1.0
e 62 59 1.0
e 63 301 1.0
e 63 42 1.0
e 64 292 10.0
e 64 128 41.0
e 65 234 1.0
e 65 165 1.0
e 66 39 25.0
e 66 243 26.0
e 67 241 15.0
e 67 270 44.0
e 67 236 42.0
e 67 137 43.0
e 67 70 4.0
e 68 201 1.0
e 68 63 1.0
e 69 183 1.0
e 69 118 1.0
e 70 96 48.0
e 70 181 6.0
e 71 260 23.0
e 71 55 48.0
e 71 185 42.0
e 71 95 13.0
e 71 153 29.0
e 72 43 1.0
e 72 92 3.0
e 73 264 2.0
e 73 116 2.0
e 74 174 26.0
e 74 146 1.0
e 75 286 43.0
e 75 160 10.0
e 76 86 31.0
e 76 309 1.0
e 77 3 1.0
e 77 177 2.0
e 78 136 2.0
e 78 26 1.0
e 79 289 1.0
e 79 209 2.0
e 80 179 2.0
e 80 204 1.0
e 81 171 1.0
e 81 222 2.0
e 82 260 2.0
e 82 121 2.0
e 83 37 26.0
e 84 61 1.0
e 84 235 1.0
e 85 80 3.0
e 85 177 1.0
e 86 282 44.0
e 86 105 26.0
e 87 106 1.0
e 87 37 18.0
e 88 269 1.0
e 88 2 2.0
e 89 52 1.0
e 89 290 2.0
e 90 272 20.0
e 90 232 21.0
e 91 295 1.0
e 91 315 1.0
e 92 32 1.0
e 92 104 1.0
e 93 14 1.0
e 93 79 1.0
e 94 68 1.0
e 94 38 26.0
e 95 117 31.0
e 95 23 32.0
e 95 99 23.0
e 96 19 41.0
e 96 282 27.0
e 97 124 18.0
e 97 168 9.0
e 98 8 2.0
e 98 13 9.0
e 99 102 34.0
e 99 229 34.0
e 100 254 28.0
e 100 241 8.0
e 101 77 48.0
e 101 18 21.0
e 102 107 11.0
e 102 241 46.0
e 103 252 2.0
e 103 243 2.0
e 104 266 1.0
e 104 201 5.0
e 105 188 9.0
e 105 51 2.0
e 106 70 28.0
e 106 109 1.0
e 107 55 29.0
e 107 68 14.0
e 108 234 32.0
e 108 158 21.0
e 109 197 1.0
e 109 19 1.0
e 110 314 29.0
e 110 60 26.0
e 110 292 31.0
e 110 111 41.0
e 111 102 46.0
e 111 113 42.0
e 112 72 1.0
e 112 299 1.0
e 113 230 45.0
e 113 27 1.0
e 114 47 1.0
e 114 151 1.0
e 115 39 45.0
e 115 290 5.0
e 115 173 18.0
e 115 265 20.0
e 116 282 2.0
e 116 293 2.0
e 117 170 1.0
e 117 287 1.0
e 118 109 1.0
e 118 143 1.0
e 119 260 1.0
e 119 241 30.0
e 120 23 41.0
e 120 147 2.0
e 121 103 1.0
e 121 102 1.0
e 122 212 45.0
e 122 47 23.0
e 123 47 1.0
e 123 148 2.0
e 124 15 42.0
e 124 26 20.0
e 125 276 1.0
e 125 267 1.0
e 126 205 3.0
e 126 175 1.0
e 127 305 1.0
e 127 294 1.0
e 128 225 47.0
e 128 23 10.0
e 128 153 37.0
e 129 238 1.0
e 129 2 1.0
e 130 144 31.0
e 130 104 1.0
e 131 218 38.0
e 131 51 1.0
e 132 105 1.0
e 132 154 18.0
e 133 126 1.0
e 133 12 2.0
e 134 278 1.0
e 134 142 1.0
e 135 17 2.0
e 135 303 1.0
e 136 163 9.0
e 136 268 2.0
e 137 275 19.0
e 137 259 27.0
e 137 144 30.0
e 138 27 1.0
e 138 309 1.0
e 139 69 1.0
e 139 107 44.0
e 140 228 2.0
e 140 1 1.0
e 141 143 1.0
e 141 293 1.0
e 142 283 42.0
e 142 33 1.0
e 143 58 3.0
e 143 265 26.0
e 144 161 19.0
e 144 238 3.0
e 145 89 3.0
e 145 221 45.0
e 145 149 2.0
e 146 124 22.0
e 146 97 5.0
e 147 10 2.0
e 147 170 2.0
e 148 182 1.0
e 148 134 1.0
e 149 248 30.0
e 149 59 27.0
e 150 100 2.0
e 150 210 2.0
e 151 153 18.0
e 151 240 2.0
e 152 122 30.0
e 152 243 2.0
e 153 41 1.0
e 153 3 39.0
e 154 19 36.0
e 154 235 29.0
e 155 180 1.0
e 155 105 1.0
e 156 76 1.0
e 156 15 1.0
e 157 318 16.0
e 157 55 26.0
e 158 101 6.0
e 158 187 35.0
e 159 158 21.0
e 159 232 1.0
e 160 19 1.0
e 160 146 1.0
e 161 94 1.0
e 161 96 29.0
e 162 183 1.0
e 162 23 38.0
e 163 209 7.0
e 163 126 14.0
e 164 110 29.0
e 164 210 2.0
e 165 134 1.0
e 165 247 1.0
e 166 251 1.0
e 166 310 1.0
e 167 218 26.0
e 167 274 2.0
e 168 156 1.0
e 168 100 1.0
e 169 63 1.0
e 169 33 1.0
e 170 188 25.0
e 170 222 1.0
e 171 178 1.0
e 171 201 5.0
e 172 280 42.0
e 172 150 17.0
e 173 218 45.0
e 173 103 39.0
e 173 174 29.0
e 174 158 11.0
e 174 119 10.0
e 174 191 21.0
e 175 210 2.0
e 175 263 1.0
e 176 287 3.0
e 176 230 21.0
e 177 86 20.0
e 177 208 44.0
e 178 261 2.0
e 178 49 1.0
e 179 101 38.0
e 179 145 27.0
e 180 253 1.0
e 180 95 41.0
e 181 34 42.0
e 181 189 34.0
e 182 239 16.0
e 182 64 1.0
e 183 48 2.0
e 183 191 39.0
e 184 121 1.0
e 184 256 1.0
e 185 49 36.0
e 185 72 36.0
e 186 315 1.0
e 186 152 1.0
e 187 237 1.0
e 187 109 1.0
e 188 11 9.0
e 188 195 26.0
e 189 278 1.0
e 189 68 1.0
e 190 301 1.0
e 190 144 4.0
e 191 200 21.0
e 191 286 15.0
e 192 48 1.0
e 192 15 1.0
e 193 157 24.0
e 193 245 11.0
e 193 196 41.0
e 193 198 14.0
e 194 143 1.0
e 194 23 36.0
e 195 6 45.0
e 195 158 8.0
e 196 249 27.0
e 196 198 17.0
e 197 263 1.0
e 197 113 1.0
e 198 73 22.0
e 198 147 41.0
e 198 206 29.0
e 199 80 3.0
e 199 196 42.0
e 200 230 25.0
e 200 210 2.0
e 201 156 6.0
e 201 107 12.0
e 202 237 1.0
e 202 183 1.0
e 203 230 4.0
e 203 113 1.0
e 204 138 1.0
e 204 169 1.0
e 205 165 1.0
e 205 0 8.0
e 206 283 26.0
e 206 94 26.0
e 206 208 6.0
e 207 93 1.0
e 207 181 38.0
e 208 160 9.0
e 208 105 20.0
e 209 65 2.0
e 209 56 1.0
e 210 185 33.0
e 210 232 2.0
e 211 69 1.0
e 211 141 1.0
e 212 221 2.0
e 212 1 1.0
e 213 226 45.0
e 213 27 12.0
e 213 239 4.0
e 213 214 38.0
e 214 2 25.0
e 214 61 19.0
e 214 217 41.0
e 215 302 1.0
e 215 140 2.0
e 216 204 1.0
e 216 158 13.0
e 217 177 11.0
e 217 41 9.0
e 217 254 23.0
e 217 219 33.0
e 218 80 37.0
e 218 260 38.0
e 219 179 8.0
e 219 120 15.0
e 219 277 10.0
e 220 68 1.0
e 220 120 1.0
e 221 148 1.0
e 221 59 1.0
e 222 147 2.0
e 222 83 1.0
e 223 22 2.0
e 223 61 46.0
e 224 168 1.0
e 224 27 2.0
e 225 47 1.0
e 225 228 1.0
e 226 39 1.0
e 226 187 1.0
e 227 275 1.0
e 227 175 2.0
e 228 41 9.0
e 228 121 2.0
e 229 121 2.0
e 229 104 2.0
e 230 248 8.0
e 230 168 37.0
e 231 301 4.0
e 231 182 37.0
e 232 211 1.0
e 232 316 28.0
e 233 255 1.0
e 233 262 23.0
e 234 189 1.0
e 234 218 19.0
e 235 297 1.0
e 235 163 24.0
e 236 119 40.0
e 236 163 17.0
e 237 200 1.0
e 237 81 1.0
e 238 241 1.0
e 238 314 33.0
e 239 231 39.0
e 240 158 25.0
e 240 264 1.0
e 241 244 1.0
e 241 157 10.0
e 242 307 17.0
e 242 99 8.0
e 242 244 17.0
e 242 249 36.0
e 243 195 44.0
e 243 43 1.0
e 244 82 39.0
e 244 314 33.0
e 244 249 45.0
e 245 208 29.0
e 245 54 1.0
e 246 235 1.0
e 246 57 1.0
e 247 169 1.0
e 247 112 1.0
e 248 138 1.0
e 248 13 1.0
e 249 124 47.0
e 249 161 33.0
e 250 7 14.0
e 250 72 1.0
e 251 216 2.0
e 251 176 2.0
e 252 250 2.0
e 252 10 1.0
e 253 207 1.0
e 253 314 20.0
e 254 25 46.0
e 254 94 41.0
e 254 258 3.0
e 255 281 1.0
e 255 163 28.0
e 256 146 1.0
e 256 286 1.0
e 257 232 1.0
e 257 238 1.0
e 258 316 19.0
e 258 93 9.0
e 258 265 3.0
e 259 112 1.0
e 259 97 31.0
e 260 195 21.0
e 260 3 1.0
e 261 57 1.0
e 261 111 1.0
e 262 1 49.0
e 262 94 16.0
e 263 159 1.0
e 263 114 1.0
e 264 12 1.0
e 264 179 1.0
e 265 186 19.0
e 265 70 37.0
e 266 275 1.0
e 266 285 1.0
e 267 104 2.0
e 267 293 1.0
e 268 317 2.0
e 268 165 1.0
e 269 172 29.0
e 269 90 31.0
e 270 75 8.0
e 270 126 1.0
e 271 14 1.0
e 271 248 1.0
e 272 157 25.0
e 272 68 2.0
e 273 141 1.0
e 273 72 1.0
e 274 50 3.0
e 274 287 1.0
e 275 199 1.0
e 275 72 1.0
e 276 158 31.0
e 276 155 2.0
e 277 16 31.0
e 277 180 17.0
e 277 280 39.0
e 277 281 39.0
e 278 107 7.0
e 278 37 21.0
e 279 219 15.0
e 279 18 14.0
e 280 271 42.0
e 280 113 40.0
e 281 187 33.0
e 281 15 38.0
e 282 130 1.0
e 282 209 2.0
e 283 116 6.0
e 283 225 18.0
e 284 61 38.0
e 284 272 1.0
e 285 142 2.0
e 285 257 1.0
e 286 131 1.0
e 286 38 34.0
e 287 64 1.0
e 287 309 1.0
e 288 255 1.0
e 288 213 37.0
e 289 82 1.0
e 289 148 1.0
e 290 168 1.0
e 290 180 2.0
e 291 253 2.0
e 291 130 1.0
e 292 252 25.0
e 292 231 7.0
e 293 107 40.0
e 293 73 1.0
e 294 53 2.0
e 294 291 1.0
e 295 148 1.0
e 295 204 1.0
e 296 232 1.0
e 296 259 1.0
e 297 247 1.0
e 297 224 1.0
e 298 242 11.0
e 298 268 1.0
e 299 188 8.0
e 299 194 1.0
e 300 148 1.0
e 300 129 1.0
e 301 222 1.0
e 301 191 45.0
e 302 294 2.0
e 302 120 1.0
e 303 130 1.0
e 303 37 48.0
e 304 221 2.0
e 304 96 49.0
e 305 193 35.0
e 305 164 1.0
e 306 142 1.0
e 306 278 1.0
e 307 122 37.0
e 307 38 45.0
e 308 6 1.0
e 308 8 1.0
e 309 297 2.0
e 309 241 30.0
e 310 211 1.0
e 310 32 1.0
e 311 253 1.0
e 311 131 2.0
e 312 263 1.0
e 312 7 32.0
e 313 231 12.0
e 313 68 1.0
e 314 78 49.0
e 314 87 37.0
e 315 147 1.0
e 315 214 1.0
e 316 105 36.0
e 316 14 39.0
e 317 311 1.0
e 317 262 38.0
e 318 289 1.0
e 318 108 16.0
e 319 111 21.0
e 319 255 1.0
